56
175
71
28
261
138
122
161
186
241
40
183
108
162
157
170
124
109
256
215
121
224
260
126
166
227
65
239
28
121
196
58
89
204
121
176
104
7
63
231
82
254
241
255
158
152
166
19
213
102
8
145
109
121
257
6
163
261
195
42
100
254
83
205
215
123
172
16
117
80
180
7
184
160
53
203
180
98
78
203
198
99
133
98
244
175
58
164
132
259
220
112
15
8
67
180
219
173
51
247
